NAME          
ROWS
 N  OBJ
 L  c1
 L  c2
 L  c3
COLUMNS
    MARKER    'MARKER'                 'INTORG'
    x[1]      c1        408
    x[1]      c2        517
    x[1]      c3        885
    x[1]      OBJ       -918
    x[2]      c1        712
    x[2]      c2        535
    x[2]      c3        599
    x[2]      OBJ       -562
    x[3]      c1        758
    x[3]      c2        773
    x[3]      c3        306
    x[3]      OBJ       -365
    x[4]      c1        939
    x[4]      c2        320
    x[4]      c3        462
    x[4]      OBJ       -889
    x[5]      c1        321
    x[5]      c2        199
    x[5]      c3        957
    x[5]      OBJ       -967
    x[6]      c1        614
    x[6]      c2        967
    x[6]      c3        909
    x[6]      OBJ       -281
    x[7]      c1        432
    x[7]      c2        514
    x[7]      c3        95
    x[7]      OBJ       -50
    x[8]      c1        304
    x[8]      c2        544
    x[8]      c3        700
    x[8]      OBJ       -690
    x[9]      c1        714
    x[9]      c2        456
    x[9]      c3        497
    x[9]      OBJ       -175
    x[10]     c1        888
    x[10]     c2        116
    x[10]     c3        552
    x[10]     OBJ       -328
    x[11]     c1        745
    x[11]     c2        899
    x[11]     c3        908
    x[11]     OBJ       -243
    x[12]     c1        904
    x[12]     c2        434
    x[12]     c3        432
    x[12]     OBJ       -358
    x[13]     c1        31
    x[13]     c2        51
    x[13]     c3        553
    x[13]     OBJ       -764
    x[14]     c1        915
    x[14]     c2        477
    x[14]     c3        750
    x[14]     OBJ       -39
    x[15]     c1        821
    x[15]     c2        641
    x[15]     c3        519
    x[15]     OBJ       -449
    x[16]     c1        327
    x[16]     c2        642
    x[16]     c3        116
    x[16]     OBJ       -453
    x[17]     c1        947
    x[17]     c2        536
    x[17]     c3        694
    x[17]     OBJ       -506
    x[18]     c1        660
    x[18]     c2        729
    x[18]     c3        696
    x[18]     OBJ       -887
    x[19]     c1        120
    x[19]     c2        1
    x[19]     c3        390
    x[19]     OBJ       -667
    x[20]     c1        97
    x[20]     c2        392
    x[20]     c3        766
    x[20]     OBJ       -584
    x[21]     c1        610
    x[21]     c2        722
    x[21]     c3        606
    x[21]     OBJ       -71
    x[22]     c1        468
    x[22]     c2        428
    x[22]     c3        168
    x[22]     OBJ       -756
    x[23]     c1        320
    x[23]     c2        998
    x[23]     c3        514
    x[23]     OBJ       -508
    x[24]     c1        480
    x[24]     c2        641
    x[24]     c3        317
    x[24]     OBJ       -569
    x[25]     c1        561
    x[25]     c2        16
    x[25]     c3        778
    x[25]     OBJ       -88
RHS
    rhs       c1        7048
    rhs       c2        6274
    rhs       c3        7084
RANGES
BOUNDS
 LO bounds    x[1]      0
 PL bounds    x[1]
 LO bounds    x[2]      0
 PL bounds    x[2]
 LO bounds    x[3]      0
 PL bounds    x[3]
 LO bounds    x[4]      0
 PL bounds    x[4]
 LO bounds    x[5]      0
 PL bounds    x[5]
 LO bounds    x[6]      0
 PL bounds    x[6]
 LO bounds    x[7]      0
 PL bounds    x[7]
 LO bounds    x[8]      0
 PL bounds    x[8]
 LO bounds    x[9]      0
 PL bounds    x[9]
 LO bounds    x[10]     0
 PL bounds    x[10]
 LO bounds    x[11]     0
 PL bounds    x[11]
 LO bounds    x[12]     0
 PL bounds    x[12]
 LO bounds    x[13]     0
 PL bounds    x[13]
 LO bounds    x[14]     0
 PL bounds    x[14]
 LO bounds    x[15]     0
 PL bounds    x[15]
 LO bounds    x[16]     0
 PL bounds    x[16]
 LO bounds    x[17]     0
 PL bounds    x[17]
 LO bounds    x[18]     0
 PL bounds    x[18]
 LO bounds    x[19]     0
 PL bounds    x[19]
 LO bounds    x[20]     0
 PL bounds    x[20]
 LO bounds    x[21]     0
 PL bounds    x[21]
 LO bounds    x[22]     0
 PL bounds    x[22]
 LO bounds    x[23]     0
 PL bounds    x[23]
 LO bounds    x[24]     0
 PL bounds    x[24]
 LO bounds    x[25]     0
 PL bounds    x[25]
ENDATA
